c sat-color queen5x5.gb 5
c file created by SAT-TO-DIMACS Wed Jul  8 08:17:37 2015
c 4.4.5 -> 125
c 4.4.4 -> 124
c 4.4.3 -> 123
c 4.4.2 -> 122
c 4.4.1 -> 121
c 4.3.5 -> 120
c 4.3.4 -> 119
c 4.3.3 -> 118
c 4.3.2 -> 117
c 4.3.1 -> 116
c 4.2.5 -> 115
c 4.2.4 -> 114
c 4.2.3 -> 113
c 4.2.2 -> 112
c 4.2.1 -> 111
c 4.1.5 -> 110
c 4.1.4 -> 109
c 4.1.3 -> 108
c 4.1.2 -> 107
c 4.1.1 -> 106
c 4.0.5 -> 105
c 4.0.4 -> 104
c 4.0.3 -> 103
c 4.0.2 -> 102
c 4.0.1 -> 101
c 3.4.5 -> 100
c 3.4.4 -> 99
c 3.4.3 -> 98
c 3.4.2 -> 97
c 3.4.1 -> 96
c 3.3.5 -> 95
c 3.3.4 -> 94
c 3.3.3 -> 93
c 3.3.2 -> 92
c 3.3.1 -> 91
c 3.2.5 -> 90
c 3.2.4 -> 89
c 3.2.3 -> 88
c 3.2.2 -> 87
c 3.2.1 -> 86
c 3.1.5 -> 85
c 3.1.4 -> 84
c 3.1.3 -> 83
c 3.1.2 -> 82
c 3.1.1 -> 81
c 3.0.5 -> 80
c 3.0.4 -> 79
c 3.0.3 -> 78
c 3.0.2 -> 77
c 3.0.1 -> 76
c 2.4.5 -> 75
c 2.4.4 -> 74
c 2.4.3 -> 73
c 2.4.2 -> 72
c 2.4.1 -> 71
c 2.3.5 -> 70
c 2.3.4 -> 69
c 2.3.3 -> 68
c 2.3.2 -> 67
c 2.3.1 -> 66
c 2.2.5 -> 65
c 2.2.4 -> 64
c 2.2.3 -> 63
c 2.2.2 -> 62
c 2.2.1 -> 61
c 2.1.5 -> 60
c 2.1.4 -> 59
c 2.1.3 -> 58
c 2.1.2 -> 57
c 2.1.1 -> 56
c 2.0.5 -> 55
c 2.0.4 -> 54
c 2.0.3 -> 53
c 2.0.2 -> 52
c 2.0.1 -> 51
c 1.4.5 -> 50
c 1.4.4 -> 49
c 1.4.3 -> 48
c 1.4.2 -> 47
c 1.4.1 -> 46
c 1.3.5 -> 45
c 1.3.4 -> 44
c 1.3.3 -> 43
c 1.3.2 -> 42
c 1.3.1 -> 41
c 1.2.5 -> 40
c 1.2.4 -> 39
c 1.2.3 -> 38
c 1.2.2 -> 37
c 1.2.1 -> 36
c 1.1.5 -> 35
c 1.1.4 -> 34
c 1.1.3 -> 33
c 1.1.2 -> 32
c 1.1.1 -> 31
c 1.0.5 -> 30
c 1.0.4 -> 29
c 1.0.3 -> 28
c 1.0.2 -> 27
c 1.0.1 -> 26
c 0.4.5 -> 25
c 0.4.4 -> 24
c 0.4.3 -> 23
c 0.4.2 -> 22
c 0.4.1 -> 21
c 0.3.5 -> 20
c 0.3.4 -> 19
c 0.3.3 -> 18
c 0.3.2 -> 17
c 0.3.1 -> 16
c 0.2.5 -> 15
c 0.2.4 -> 14
c 0.2.3 -> 13
c 0.2.2 -> 12
c 0.2.1 -> 11
c 0.1.5 -> 10
c 0.1.4 -> 9
c 0.1.3 -> 8
c 0.1.2 -> 7
c 0.1.1 -> 6
c 0.0.5 -> 5
c 0.0.4 -> 4
c 0.0.3 -> 3
c 0.0.2 -> 2
c 0.0.1 -> 1
p cnf 125 825
 -125 -120 0
 -125 -115 0
 -120 -115 0
 -125 -110 0
 -120 -110 0
 -115 -110 0
 -125 -105 0
 -120 -105 0
 -115 -105 0
 -110 -105 0
 -125 -100 0
 -120 -100 0
 -120 -95 0
 -100 -95 0
 -115 -95 0
 -125 -95 0
 -115 -90 0
 -100 -90 0
 -95 -90 0
 -110 -90 0
 -120 -90 0
 -110 -85 0
 -100 -85 0
 -95 -85 0
 -90 -85 0
 -105 -85 0
 -115 -85 0
 -105 -80 0
 -100 -80 0
 -95 -80 0
 -90 -80 0
 -85 -80 0
 -110 -80 0
 -125 -75 0
 -100 -75 0
 -115 -75 0
 -95 -75 0
 -120 -70 0
 -95 -70 0
 -75 -70 0
 -110 -70 0
 -90 -70 0
 -100 -70 0
 -115 -65 0
 -90 -65 0
 -75 -65 0
 -70 -65 0
 -105 -65 0
 -85 -65 0
 -125 -65 0
 -95 -65 0
 -110 -60 0
 -85 -60 0
 -75 -60 0
 -70 -60 0
 -65 -60 0
 -80 -60 0
 -120 -60 0
 -90 -60 0
 -105 -55 0
 -80 -55 0
 -75 -55 0
 -70 -55 0
 -65 -55 0
 -60 -55 0
 -115 -55 0
 -85 -55 0
 -125 -50 0
 -100 -50 0
 -75 -50 0
 -110 -50 0
 -90 -50 0
 -70 -50 0
 -120 -45 0
 -95 -45 0
 -70 -45 0
 -50 -45 0
 -105 -45 0
 -85 -45 0
 -65 -45 0
 -75 -45 0
 -115 -40 0
 -90 -40 0
 -65 -40 0
 -50 -40 0
 -45 -40 0
 -80 -40 0
 -60 -40 0
 -100 -40 0
 -70 -40 0
 -110 -35 0
 -85 -35 0
 -60 -35 0
 -50 -35 0
 -45 -35 0
 -40 -35 0
 -55 -35 0
 -125 -35 0
 -95 -35 0
 -65 -35 0
 -105 -30 0
 -80 -30 0
 -55 -30 0
 -50 -30 0
 -45 -30 0
 -40 -30 0
 -35 -30 0
 -120 -30 0
 -90 -30 0
 -60 -30 0
 -125 -25 0
 -100 -25 0
 -75 -25 0
 -50 -25 0
 -105 -25 0
 -85 -25 0
 -65 -25 0
 -45 -25 0
 -120 -20 0
 -95 -20 0
 -70 -20 0
 -45 -20 0
 -25 -20 0
 -80 -20 0
 -60 -20 0
 -40 -20 0
 -50 -20 0
 -115 -15 0
 -90 -15 0
 -65 -15 0
 -40 -15 0
 -25 -15 0
 -20 -15 0
 -55 -15 0
 -35 -15 0
 -75 -15 0
 -45 -15 0
 -110 -10 0
 -85 -10 0
 -60 -10 0
 -35 -10 0
 -25 -10 0
 -20 -10 0
 -15 -10 0
 -30 -10 0
 -100 -10 0
 -70 -10 0
 -40 -10 0
 -105 -5 0
 -80 -5 0
 -55 -5 0
 -30 -5 0
 -25 -5 0
 -20 -5 0
 -15 -5 0
 -10 -5 0
 -125 -5 0
 -95 -5 0
 -65 -5 0
 -35 -5 0
 -124 -119 0
 -124 -114 0
 -119 -114 0
 -124 -109 0
 -119 -109 0
 -114 -109 0
 -124 -104 0
 -119 -104 0
 -114 -104 0
 -109 -104 0
 -124 -99 0
 -119 -99 0
 -119 -94 0
 -99 -94 0
 -114 -94 0
 -124 -94 0
 -114 -89 0
 -99 -89 0
 -94 -89 0
 -109 -89 0
 -119 -89 0
 -109 -84 0
 -99 -84 0
 -94 -84 0
 -89 -84 0
 -104 -84 0
 -114 -84 0
 -104 -79 0
 -99 -79 0
 -94 -79 0
 -89 -79 0
 -84 -79 0
 -109 -79 0
 -124 -74 0
 -99 -74 0
 -114 -74 0
 -94 -74 0
 -119 -69 0
 -94 -69 0
 -74 -69 0
 -109 -69 0
 -89 -69 0
 -99 -69 0
 -114 -64 0
 -89 -64 0
 -74 -64 0
 -69 -64 0
 -104 -64 0
 -84 -64 0
 -124 -64 0
 -94 -64 0
 -109 -59 0
 -84 -59 0
 -74 -59 0
 -69 -59 0
 -64 -59 0
 -79 -59 0
 -119 -59 0
 -89 -59 0
 -104 -54 0
 -79 -54 0
 -74 -54 0
 -69 -54 0
 -64 -54 0
 -59 -54 0
 -114 -54 0
 -84 -54 0
 -124 -49 0
 -99 -49 0
 -74 -49 0
 -109 -49 0
 -89 -49 0
 -69 -49 0
 -119 -44 0
 -94 -44 0
 -69 -44 0
 -49 -44 0
 -104 -44 0
 -84 -44 0
 -64 -44 0
 -74 -44 0
 -114 -39 0
 -89 -39 0
 -64 -39 0
 -49 -39 0
 -44 -39 0
 -79 -39 0
 -59 -39 0
 -99 -39 0
 -69 -39 0
 -109 -34 0
 -84 -34 0
 -59 -34 0
 -49 -34 0
 -44 -34 0
 -39 -34 0
 -54 -34 0
 -124 -34 0
 -94 -34 0
 -64 -34 0
 -104 -29 0
 -79 -29 0
 -54 -29 0
 -49 -29 0
 -44 -29 0
 -39 -29 0
 -34 -29 0
 -119 -29 0
 -89 -29 0
 -59 -29 0
 -124 -24 0
 -99 -24 0
 -74 -24 0
 -49 -24 0
 -104 -24 0
 -84 -24 0
 -64 -24 0
 -44 -24 0
 -119 -19 0
 -94 -19 0
 -69 -19 0
 -44 -19 0
 -24 -19 0
 -79 -19 0
 -59 -19 0
 -39 -19 0
 -49 -19 0
 -114 -14 0
 -89 -14 0
 -64 -14 0
 -39 -14 0
 -24 -14 0
 -19 -14 0
 -54 -14 0
 -34 -14 0
 -74 -14 0
 -44 -14 0
 -109 -9 0
 -84 -9 0
 -59 -9 0
 -34 -9 0
 -24 -9 0
 -19 -9 0
 -14 -9 0
 -29 -9 0
 -99 -9 0
 -69 -9 0
 -39 -9 0
 -104 -4 0
 -79 -4 0
 -54 -4 0
 -29 -4 0
 -24 -4 0
 -19 -4 0
 -14 -4 0
 -9 -4 0
 -124 -4 0
 -94 -4 0
 -64 -4 0
 -34 -4 0
 -123 -118 0
 -123 -113 0
 -118 -113 0
 -123 -108 0
 -118 -108 0
 -113 -108 0
 -123 -103 0
 -118 -103 0
 -113 -103 0
 -108 -103 0
 -123 -98 0
 -118 -98 0
 -118 -93 0
 -98 -93 0
 -113 -93 0
 -123 -93 0
 -113 -88 0
 -98 -88 0
 -93 -88 0
 -108 -88 0
 -118 -88 0
 -108 -83 0
 -98 -83 0
 -93 -83 0
 -88 -83 0
 -103 -83 0
 -113 -83 0
 -103 -78 0
 -98 -78 0
 -93 -78 0
 -88 -78 0
 -83 -78 0
 -108 -78 0
 -123 -73 0
 -98 -73 0
 -113 -73 0
 -93 -73 0
 -118 -68 0
 -93 -68 0
 -73 -68 0
 -108 -68 0
 -88 -68 0
 -98 -68 0
 -113 -63 0
 -88 -63 0
 -73 -63 0
 -68 -63 0
 -103 -63 0
 -83 -63 0
 -123 -63 0
 -93 -63 0
 -108 -58 0
 -83 -58 0
 -73 -58 0
 -68 -58 0
 -63 -58 0
 -78 -58 0
 -118 -58 0
 -88 -58 0
 -103 -53 0
 -78 -53 0
 -73 -53 0
 -68 -53 0
 -63 -53 0
 -58 -53 0
 -113 -53 0
 -83 -53 0
 -123 -48 0
 -98 -48 0
 -73 -48 0
 -108 -48 0
 -88 -48 0
 -68 -48 0
 -118 -43 0
 -93 -43 0
 -68 -43 0
 -48 -43 0
 -103 -43 0
 -83 -43 0
 -63 -43 0
 -73 -43 0
 -113 -38 0
 -88 -38 0
 -63 -38 0
 -48 -38 0
 -43 -38 0
 -78 -38 0
 -58 -38 0
 -98 -38 0
 -68 -38 0
 -108 -33 0
 -83 -33 0
 -58 -33 0
 -48 -33 0
 -43 -33 0
 -38 -33 0
 -53 -33 0
 -123 -33 0
 -93 -33 0
 -63 -33 0
 -103 -28 0
 -78 -28 0
 -53 -28 0
 -48 -28 0
 -43 -28 0
 -38 -28 0
 -33 -28 0
 -118 -28 0
 -88 -28 0
 -58 -28 0
 -123 -23 0
 -98 -23 0
 -73 -23 0
 -48 -23 0
 -103 -23 0
 -83 -23 0
 -63 -23 0
 -43 -23 0
 -118 -18 0
 -93 -18 0
 -68 -18 0
 -43 -18 0
 -23 -18 0
 -78 -18 0
 -58 -18 0
 -38 -18 0
 -48 -18 0
 -113 -13 0
 -88 -13 0
 -63 -13 0
 -38 -13 0
 -23 -13 0
 -18 -13 0
 -53 -13 0
 -33 -13 0
 -73 -13 0
 -43 -13 0
 -108 -8 0
 -83 -8 0
 -58 -8 0
 -33 -8 0
 -23 -8 0
 -18 -8 0
 -13 -8 0
 -28 -8 0
 -98 -8 0
 -68 -8 0
 -38 -8 0
 -103 -3 0
 -78 -3 0
 -53 -3 0
 -28 -3 0
 -23 -3 0
 -18 -3 0
 -13 -3 0
 -8 -3 0
 -123 -3 0
 -93 -3 0
 -63 -3 0
 -33 -3 0
 -122 -117 0
 -122 -112 0
 -117 -112 0
 -122 -107 0
 -117 -107 0
 -112 -107 0
 -122 -102 0
 -117 -102 0
 -112 -102 0
 -107 -102 0
 -122 -97 0
 -117 -97 0
 -117 -92 0
 -97 -92 0
 -112 -92 0
 -122 -92 0
 -112 -87 0
 -97 -87 0
 -92 -87 0
 -107 -87 0
 -117 -87 0
 -107 -82 0
 -97 -82 0
 -92 -82 0
 -87 -82 0
 -102 -82 0
 -112 -82 0
 -102 -77 0
 -97 -77 0
 -92 -77 0
 -87 -77 0
 -82 -77 0
 -107 -77 0
 -122 -72 0
 -97 -72 0
 -112 -72 0
 -92 -72 0
 -117 -67 0
 -92 -67 0
 -72 -67 0
 -107 -67 0
 -87 -67 0
 -97 -67 0
 -112 -62 0
 -87 -62 0
 -72 -62 0
 -67 -62 0
 -102 -62 0
 -82 -62 0
 -122 -62 0
 -92 -62 0
 -107 -57 0
 -82 -57 0
 -72 -57 0
 -67 -57 0
 -62 -57 0
 -77 -57 0
 -117 -57 0
 -87 -57 0
 -102 -52 0
 -77 -52 0
 -72 -52 0
 -67 -52 0
 -62 -52 0
 -57 -52 0
 -112 -52 0
 -82 -52 0
 -122 -47 0
 -97 -47 0
 -72 -47 0
 -107 -47 0
 -87 -47 0
 -67 -47 0
 -117 -42 0
 -92 -42 0
 -67 -42 0
 -47 -42 0
 -102 -42 0
 -82 -42 0
 -62 -42 0
 -72 -42 0
 -112 -37 0
 -87 -37 0
 -62 -37 0
 -47 -37 0
 -42 -37 0
 -77 -37 0
 -57 -37 0
 -97 -37 0
 -67 -37 0
 -107 -32 0
 -82 -32 0
 -57 -32 0
 -47 -32 0
 -42 -32 0
 -37 -32 0
 -52 -32 0
 -122 -32 0
 -92 -32 0
 -62 -32 0
 -102 -27 0
 -77 -27 0
 -52 -27 0
 -47 -27 0
 -42 -27 0
 -37 -27 0
 -32 -27 0
 -117 -27 0
 -87 -27 0
 -57 -27 0
 -122 -22 0
 -97 -22 0
 -72 -22 0
 -47 -22 0
 -102 -22 0
 -82 -22 0
 -62 -22 0
 -42 -22 0
 -117 -17 0
 -92 -17 0
 -67 -17 0
 -42 -17 0
 -22 -17 0
 -77 -17 0
 -57 -17 0
 -37 -17 0
 -47 -17 0
 -112 -12 0
 -87 -12 0
 -62 -12 0
 -37 -12 0
 -22 -12 0
 -17 -12 0
 -52 -12 0
 -32 -12 0
 -72 -12 0
 -42 -12 0
 -107 -7 0
 -82 -7 0
 -57 -7 0
 -32 -7 0
 -22 -7 0
 -17 -7 0
 -12 -7 0
 -27 -7 0
 -97 -7 0
 -67 -7 0
 -37 -7 0
 -102 -2 0
 -77 -2 0
 -52 -2 0
 -27 -2 0
 -22 -2 0
 -17 -2 0
 -12 -2 0
 -7 -2 0
 -122 -2 0
 -92 -2 0
 -62 -2 0
 -32 -2 0
 -121 -116 0
 -121 -111 0
 -116 -111 0
 -121 -106 0
 -116 -106 0
 -111 -106 0
 -121 -101 0
 -116 -101 0
 -111 -101 0
 -106 -101 0
 -121 -96 0
 -116 -96 0
 -116 -91 0
 -96 -91 0
 -111 -91 0
 -121 -91 0
 -111 -86 0
 -96 -86 0
 -91 -86 0
 -106 -86 0
 -116 -86 0
 -106 -81 0
 -96 -81 0
 -91 -81 0
 -86 -81 0
 -101 -81 0
 -111 -81 0
 -101 -76 0
 -96 -76 0
 -91 -76 0
 -86 -76 0
 -81 -76 0
 -106 -76 0
 -121 -71 0
 -96 -71 0
 -111 -71 0
 -91 -71 0
 -116 -66 0
 -91 -66 0
 -71 -66 0
 -106 -66 0
 -86 -66 0
 -96 -66 0
 -111 -61 0
 -86 -61 0
 -71 -61 0
 -66 -61 0
 -101 -61 0
 -81 -61 0
 -121 -61 0
 -91 -61 0
 -106 -56 0
 -81 -56 0
 -71 -56 0
 -66 -56 0
 -61 -56 0
 -76 -56 0
 -116 -56 0
 -86 -56 0
 -101 -51 0
 -76 -51 0
 -71 -51 0
 -66 -51 0
 -61 -51 0
 -56 -51 0
 -111 -51 0
 -81 -51 0
 -121 -46 0
 -96 -46 0
 -71 -46 0
 -106 -46 0
 -86 -46 0
 -66 -46 0
 -116 -41 0
 -91 -41 0
 -66 -41 0
 -46 -41 0
 -101 -41 0
 -81 -41 0
 -61 -41 0
 -71 -41 0
 -111 -36 0
 -86 -36 0
 -61 -36 0
 -46 -36 0
 -41 -36 0
 -76 -36 0
 -56 -36 0
 -96 -36 0
 -66 -36 0
 -106 -31 0
 -81 -31 0
 -56 -31 0
 -46 -31 0
 -41 -31 0
 -36 -31 0
 -51 -31 0
 -121 -31 0
 -91 -31 0
 -61 -31 0
 -101 -26 0
 -76 -26 0
 -51 -26 0
 -46 -26 0
 -41 -26 0
 -36 -26 0
 -31 -26 0
 -116 -26 0
 -86 -26 0
 -56 -26 0
 -121 -21 0
 -96 -21 0
 -71 -21 0
 -46 -21 0
 -101 -21 0
 -81 -21 0
 -61 -21 0
 -41 -21 0
 -116 -16 0
 -91 -16 0
 -66 -16 0
 -41 -16 0
 -21 -16 0
 -76 -16 0
 -56 -16 0
 -36 -16 0
 -46 -16 0
 -111 -11 0
 -86 -11 0
 -61 -11 0
 -36 -11 0
 -21 -11 0
 -16 -11 0
 -51 -11 0
 -31 -11 0
 -71 -11 0
 -41 -11 0
 -106 -6 0
 -81 -6 0
 -56 -6 0
 -31 -6 0
 -21 -6 0
 -16 -6 0
 -11 -6 0
 -26 -6 0
 -96 -6 0
 -66 -6 0
 -36 -6 0
 -101 -1 0
 -76 -1 0
 -51 -1 0
 -26 -1 0
 -21 -1 0
 -16 -1 0
 -11 -1 0
 -6 -1 0
 -121 -1 0
 -91 -1 0
 -61 -1 0
 -31 -1 0
 125 124 123 122 121 0
 120 119 118 117 116 0
 115 114 113 112 111 0
 110 109 108 107 106 0
 105 104 103 102 101 0
 100 99 98 97 96 0
 95 94 93 92 91 0
 90 89 88 87 86 0
 85 84 83 82 81 0
 80 79 78 77 76 0
 75 74 73 72 71 0
 70 69 68 67 66 0
 65 64 63 62 61 0
 60 59 58 57 56 0
 55 54 53 52 51 0
 50 49 48 47 46 0
 45 44 43 42 41 0
 40 39 38 37 36 0
 35 34 33 32 31 0
 30 29 28 27 26 0
 25 24 23 22 21 0
 20 19 18 17 16 0
 15 14 13 12 11 0
 10 9 8 7 6 0
 5 4 3 2 1 0
